[[79, 88, 89, 90, 99, 98, 97, 96, 87, 95, 86, 85, 94, 93, 92, 91, 83, 82, 73, 84, 75, 76], [77, 68, 67, 66, 74, 64, 65, 56, 57, 58, 59, 49, 47, 55, 46, 48, 39, 40, 38], [29, 37, 28, 30, 31, 21, 22, 19, 20, 11, 10, 2, 3, 12, 13, 4, 14, 5], [6, 7, 8, 9, 18, 17, 16, 15, 23, 24, 25, 26, 27, 35, 36, 44, 34, 43, 33, 42, 32], [41, 50, 60, 51, 52, 53, 45, 54, 63, 62, 61, 72, 81, 71, 80, 70, 69, 78]]